c colouring generated by benchmark framework
p edge 188 3885
v 1 8
v 2 3
v 3 10
v 4 19
v 5 17
v 6 2
v 7 5
v 8 4
v 9 11
v 10 1
v 11 28
v 12 26
v 13 0
v 14 12
v 15 9
v 16 23
v 17 5
v 18 7
v 19 21
v 20 1
v 21 2
v 22 15
v 23 8
v 24 0
v 25 13
v 26 4
v 27 28
v 28 6
v 29 3
v 30 29
v 31 30
v 32 12
v 33 29
v 34 20
v 35 20
v 36 26
v 37 10
v 38 9
v 39 9
v 40 27
v 41 9
v 42 19
v 43 9
v 44 9
v 45 11
v 46 6
v 47 6
v 48 25
v 49 6
v 50 27
v 51 7
v 52 14
v 53 13
v 54 15
v 55 24
v 56 9
v 57 9
v 58 9
v 59 9
v 60 19
v 61 18
v 62 9
v 63 16
v 64 30
v 65 24
v 66 22
v 67 21
v 68 11
v 69 9
v 70 20
v 71 24
v 72 10
v 73 10
v 74 11
v 75 10
v 76 25
v 77 9
v 78 16
v 79 17
v 80 10
v 81 11
v 82 14
v 83 9
v 84 16
v 85 23
v 86 10
v 87 26
v 88 18
v 89 11
v 90 14
v 91 16
v 92 25
v 93 16
v 94 17
v 95 17
v 96 18
v 97 20
v 98 7
v 99 20
v 100 27
v 101 25
v 102 25
v 103 25
v 104 25
v 105 25
v 106 29
v 107 25
v 108 25
v 109 17
v 110 20
v 111 22
v 112 25
v 113 25
v 114 20
v 115 27
v 116 26
v 117 22
v 118 29
v 119 25
v 120 25
v 121 20
v 122 20
v 123 22
v 124 20
v 125 11
v 126 0
v 127 12
v 128 22
v 129 25
v 130 26
v 131 29
v 132 26
v 133 30
v 134 29
v 135 29
v 136 26
v 137 25
v 138 25
v 139 11
v 140 22
v 141 2
v 142 28
v 143 25
v 144 29
v 145 30
v 146 29
v 147 29
v 148 25
v 149 25
v 150 25
v 151 20
v 152 19
v 153 9
v 154 29
v 155 29
v 156 29
v 157 29
v 158 29
v 159 27
v 160 22
v 161 2
v 162 9
v 163 10
v 164 16
v 165 18
v 166 30
v 167 10
v 168 9
v 169 17
v 170 11
v 171 22
v 172 16
v 173 14
v 174 10
v 175 9
v 176 27
v 177 9
v 178 22
v 179 9
v 180 14
v 181 17
v 182 21
v 183 16
v 184 16
v 185 10
v 186 22
v 187 9
v 188 18
